Route #1: 1 20 51 41 56 40 24 12 64
Route #2: 1 26 39 54 4 68 30 43 37 33 7 29
Route #3: 1 57 34 2 16 32 65 28 36 61
Route #4: 1 5 48 67 44 66 8
Route #5: 1 47 14 6 15 63 55 22 31 60 49
Route #6: 1 50 23 3 52 62 45
Route #7: 1 11 19 25 59 42 38 9
Route #8: 1 18 53 21 58 27 35
Route #9: 1 17 46 13 10
cost 1471
